nNurses = 105;
nHours = 31;
minHours = 3;
maxHours = 13;
maxConsec = 13;
maxPresence = 24;
demand = [32, 35, 40, 40, 42, 37, 38, 43, 38, 36, 41, 41, 43, 41, 40, 43, 38, 39, 37, 41, 38, 33, 29, 24, 21, 16, 12, 10, 13, 10, 6];
